JulietBench/Juliet_Based_Patch_Bench/FFmpeg/CWE-189-Numeric-Errors/CVE_2014_8546_e7e5114c506957f40aafd794e06de1a7e341e9d5/Resultcinepak_decode_vectors_Snippet_patch2EQ.smt2
; benchmark generated from python API
(set-info :status unknown)
(declare-fun R () (_ BitVec 32))
(declare-fun rdi () (_ BitVec 64))
(assert
 (let (($x266 (= (_ bv0 32) R)))
 (let ((?x6 ((_ extract 31 0) rdi)))
 (let (($x11 (bvule ?x6 (_ bv1 32))))
 (let (($x265 (and $x11 $x266)))
 (let (($x268 (= (_ bv2 32) R)))
 (let (($x45 (bvugt ?x6 (_ bv1 32))))
 (let (($x56 (bvule ?x6 (_ bv2 32))))
 (let (($x267 (and $x56 $x45 $x268)))
 (let (($x276 (= (_ bv6 32) R)))
 (let (($x138 (bvugt ?x6 (_ bv2 32))))
 (let (($x51 (bvule ?x6 (_ bv3 32))))
 (let (($x269 (and $x51 $x138 $x45 $x276)))
 (let (($x273 (= (_ bv12 32) R)))
 (let (($x148 (bvugt ?x6 (_ bv3 32))))
 (let (($x282 (and $x148 $x138 $x45 $x273)))
 (let (($x264 (or $x282 $x269 $x267 $x265)))
 (let ((?x151 (bvsub ?x6 (_ bv4 32))))
 (let (($x236 (bvugt ?x151 (_ bv1 32))))
 (let (($x348 (bvugt ?x151 (_ bv2 32))))
 (let (($x182 (bvugt ?x151 (_ bv3 32))))
 (let (($x27 (and $x182 $x348 $x236 $x11 $x273)))
 (let (($x149 (bvule ?x151 (_ bv1 32))))
 (let (($x22 (and $x149 $x148 $x138 $x45 $x273)))
 (let (($x270 (and $x182 $x348 $x236 $x56 $x45 $x273)))
 (let (($x316 (bvule ?x151 (_ bv2 32))))
 (let (($x271 (and $x316 $x236 $x148 $x138 $x45 $x273)))
 (let (($x13 (and $x182 $x348 $x236 $x51 $x138 $x45 $x273)))
 (let (($x53 (bvule ?x151 (_ bv3 32))))
 (let (($x15 (and $x53 $x348 $x236 $x148 $x138 $x45 $x273)))
 (let (($x272 (and $x182 $x348 $x236 $x148 $x138 $x45 $x273)))
 (let (($x28 (or $x272 $x15 $x13 $x271 $x270 $x22 $x27)))
 (and $x28 $x264)))))))))))))))))))))))))))))))))
(check-sat)
